(set-logic QF_NRA)
(set-info :source |Benchmarks generated from hycomp (https://es-static.fbk.eu/tools/hycomp/). BMC instances of non-linear hybrid automata taken from: Alessandro Cimatti, Sergio Mover, Stefano Tonetta, A quantifier-free SMT encoding of non-linear hybrid automata, FMCAD 2012 and Alessandro Cimatti, Sergio Mover, Stefano Tonetta, Quantier-free encoding of invariants for Hybrid Systems, Formal Methods in System Design. This instance solves a BMC problem of depth 3 and uses the quantifier free encoding with lemmas encoding. Contacts: Sergio Mover (mover@fbk.eu), Stefano Tonetta (tonettas@fbk.eu), Alessandro Cimatti (cimatti@fbk.eu).|)
(set-info :smt-lib-version 2.0)
(set-info :category "industrial")
(set-info :status unsat)
;; MathSAT API call trace
;; generated on Mon Mar 19 10:48:27 2012
(declare-fun b.delta__AT1 () Real)
(declare-fun b.EVENT.0__AT1 () Bool)
(declare-fun b.EVENT.1__AT0 () Bool)
(declare-fun b.time__AT2 () Real)
(declare-fun b.EVENT.1__AT1 () Bool)
(declare-fun b.EVENT.0__AT0 () Bool)
(declare-fun b.delta__AT2 () Real)
(declare-fun b.time__AT1 () Real)
(declare-fun b.EVENT.0__AT2 () Bool)
(declare-fun b.speed_y__AT1 () Real)
(declare-fun b.y__AT2 () Real)
(declare-fun b.EVENT.1__AT2 () Bool)
(declare-fun b.time__AT0 () Real)
(declare-fun b.y__AT0 () Real)
(declare-fun b.counter.0__AT0 () Bool)
(declare-fun b.counter.2__AT0 () Bool)
(declare-fun b.counter.1__AT0 () Bool)
(declare-fun b.counter.1__AT1 () Bool)
(declare-fun b.event_is_timed__AT3 () Bool)
(declare-fun b.counter.2__AT1 () Bool)
(declare-fun b.speed_y__AT2 () Real)
(declare-fun b.y__AT3 () Real)
(declare-fun b.counter.2__AT2 () Bool)
(declare-fun speed_loss__AT0 () Real)
(declare-fun b.counter.0__AT3 () Bool)
(declare-fun b.counter.3__AT2 () Bool)
(declare-fun b.time__AT3 () Real)
(declare-fun b.counter.1__AT3 () Bool)
(declare-fun b.speed_y__AT0 () Real)
(declare-fun b.event_is_timed__AT1 () Bool)
(declare-fun b.delta__AT3 () Real)
(declare-fun b.counter.2__AT3 () Bool)
(declare-fun b.counter.0__AT2 () Bool)
(declare-fun b.event_is_timed__AT0 () Bool)
(declare-fun b.EVENT.0__AT3 () Bool)
(declare-fun b.counter.3__AT3 () Bool)
(declare-fun b.counter.1__AT2 () Bool)
(declare-fun b.EVENT.1__AT3 () Bool)
(declare-fun b.counter.3__AT1 () Bool)
(declare-fun b.delta__AT0 () Real)
(declare-fun b.y__AT1 () Real)
(declare-fun b.speed_y__AT3 () Real)
(declare-fun b.event_is_timed__AT2 () Bool)
(declare-fun b.counter.0__AT1 () Bool)
(declare-fun b.counter.3__AT0 () Bool)
(assert (let ((.def_692 (<= b.speed_y__AT3 0.0 )))
(let ((.def_674 (* (- 49.0) b.delta__AT3)))
(let ((.def_675 (* 5.0 b.speed_y__AT3)))
(let ((.def_677 (+ .def_675 .def_674)))
(let ((.def_690 (<= .def_677 0.0 )))
(let ((.def_709 (and .def_690 .def_692)))
(let ((.def_678 (<= 0.0 .def_677)))
(let ((.def_679 (not .def_678)))
(let ((.def_672 (<= 0.0 b.speed_y__AT3)))
(let ((.def_706 (or .def_672 .def_679)))
(let ((.def_693 (not .def_692)))
(let ((.def_705 (or .def_690 .def_693)))
(let ((.def_707 (and .def_705 .def_706)))
(let ((.def_710 (and .def_707 .def_709)))
(let ((.def_704 (and .def_672 .def_678)))
(let ((.def_708 (and .def_704 .def_707)))
(let ((.def_711 (or .def_708 .def_710)))
(let ((.def_664 (* b.speed_y__AT3 b.delta__AT3)))
(let ((.def_665 (* 10.0 .def_664)))
(let ((.def_662 (* b.delta__AT3 b.delta__AT3)))
(let ((.def_663 (* (- 49.0) .def_662)))
(let ((.def_666 (+ .def_663 .def_665)))
(let ((.def_667 (* 10.0 b.y__AT3)))
(let ((.def_669 (+ .def_667 .def_666)))
(let ((.def_684 (<= .def_669 0.0 )))
(let ((.def_698 (not .def_684)))
(let ((.def_682 (<= b.y__AT3 0.0 )))
(let ((.def_699 (or .def_682 .def_698)))
(let ((.def_648 (<= 0.0 b.y__AT3)))
(let ((.def_696 (not .def_648)))
(let ((.def_670 (<= 0.0 .def_669)))
(let ((.def_697 (or .def_670 .def_696)))
(let ((.def_700 (and .def_697 .def_699)))
(let ((.def_691 (not .def_690)))
(let ((.def_694 (or .def_691 .def_693)))
(let ((.def_695 (not .def_694)))
(let ((.def_701 (or .def_695 .def_700)))
(let ((.def_686 (not .def_670)))
(let ((.def_687 (or .def_648 .def_686)))
(let ((.def_683 (not .def_682)))
(let ((.def_685 (or .def_683 .def_684)))
(let ((.def_688 (and .def_685 .def_687)))
(let ((.def_673 (not .def_672)))
(let ((.def_680 (or .def_673 .def_679)))
(let ((.def_681 (not .def_680)))
(let ((.def_689 (or .def_681 .def_688)))
(let ((.def_702 (and .def_689 .def_701)))
(let ((.def_671 (and .def_648 .def_670)))
(let ((.def_703 (and .def_671 .def_702)))
(let ((.def_712 (and .def_703 .def_711)))
(let ((.def_63 (<= speed_loss__AT0 (/ 1 2))))
(let ((.def_60 (<= (/ 1 10) speed_loss__AT0)))
(let ((.def_64 (and .def_60 .def_63)))
(let ((.def_713 (and .def_64 .def_712)))
(let ((.def_347 (not b.counter.0__AT2)))
(let ((.def_335 (not b.counter.1__AT2)))
(let ((.def_653 (and .def_335 .def_347)))
(let ((.def_657 (or b.counter.3__AT2 .def_653)))
(let ((.def_654 (or b.counter.2__AT2 .def_653)))
(let ((.def_342 (not b.counter.2__AT2)))
(let ((.def_652 (or .def_335 .def_342)))
(let ((.def_655 (and .def_652 .def_654)))
(let ((.def_357 (not b.counter.3__AT2)))
(let ((.def_656 (or .def_357 .def_655)))
(let ((.def_658 (and .def_656 .def_657)))
(let ((.def_649 (and .def_64 .def_648)))
(let ((.def_645 (not b.EVENT.0__AT3)))
(let ((.def_643 (not b.EVENT.1__AT3)))
(let ((.def_646 (or .def_643 .def_645)))
(let ((.def_9 (not b.counter.0__AT3)))
(let ((.def_6 (not b.counter.1__AT3)))
(let ((.def_636 (or .def_6 .def_9)))
(let ((.def_640 (or b.counter.3__AT3 .def_636)))
(let ((.def_637 (or b.counter.2__AT3 .def_636)))
(let ((.def_4 (not b.counter.2__AT3)))
(let ((.def_635 (or .def_4 .def_9)))
(let ((.def_638 (and .def_635 .def_637)))
(let ((.def_14 (not b.counter.3__AT3)))
(let ((.def_639 (or .def_14 .def_638)))
(let ((.def_641 (and .def_639 .def_640)))
(let ((.def_647 (and .def_641 .def_646)))
(let ((.def_650 (and .def_647 .def_649)))
(let ((.def_630 (<= 0.0 b.delta__AT2)))
(let ((.def_455 (not b.EVENT.0__AT2)))
(let ((.def_453 (not b.EVENT.1__AT2)))
(let ((.def_577 (and .def_453 .def_455)))
(let ((.def_581 (not .def_577)))
(let ((.def_631 (or .def_581 .def_630)))
(let ((.def_632 (or b.EVENT.1__AT2 .def_631)))
(let ((.def_569 (= b.counter.0__AT3 b.counter.0__AT2)))
(let ((.def_567 (= b.counter.1__AT3 b.counter.1__AT2)))
(let ((.def_565 (= b.counter.2__AT3 b.counter.2__AT2)))
(let ((.def_564 (= b.counter.3__AT3 b.counter.3__AT2)))
(let ((.def_566 (and .def_564 .def_565)))
(let ((.def_568 (and .def_566 .def_567)))
(let ((.def_570 (and .def_568 .def_569)))
(let ((.def_627 (or .def_570 .def_581)))
(let ((.def_628 (or b.EVENT.1__AT2 .def_627)))
(let ((.def_615 (* (- 10.0) b.y__AT3)))
(let ((.def_474 (* b.speed_y__AT2 b.delta__AT2)))
(let ((.def_475 (* 10.0 .def_474)))
(let ((.def_619 (+ .def_475 .def_615)))
(let ((.def_472 (* b.delta__AT2 b.delta__AT2)))
(let ((.def_473 (* (- 49.0) .def_472)))
(let ((.def_620 (+ .def_473 .def_619)))
(let ((.def_477 (* 10.0 b.y__AT2)))
(let ((.def_621 (+ .def_477 .def_620)))
(let ((.def_622 (= .def_621 0.0 )))
(let ((.def_611 (* (- 5.0) b.speed_y__AT3)))
(let ((.def_484 (* (- 49.0) b.delta__AT2)))
(let ((.def_612 (+ .def_484 .def_611)))
(let ((.def_485 (* 5.0 b.speed_y__AT2)))
(let ((.def_613 (+ .def_485 .def_612)))
(let ((.def_614 (= .def_613 0.0 )))
(let ((.def_623 (and .def_614 .def_622)))
(let ((.def_624 (or .def_581 .def_623)))
(let ((.def_575 (= b.y__AT2 b.y__AT3)))
(let ((.def_563 (= b.speed_y__AT2 b.speed_y__AT3)))
(let ((.def_608 (and .def_563 .def_575)))
(let ((.def_605 (= b.delta__AT2 0.0 )))
(let ((.def_606 (and .def_577 .def_605)))
(let ((.def_607 (not .def_606)))
(let ((.def_609 (or .def_607 .def_608)))
(let ((.def_610 (or b.EVENT.1__AT2 .def_609)))
(let ((.def_625 (and .def_610 .def_624)))
(let ((.def_587 (= b.time__AT2 b.time__AT3)))
(let ((.def_599 (and .def_575 .def_587)))
(let ((.def_600 (and .def_563 .def_599)))
(let ((.def_601 (and .def_570 .def_600)))
(let ((.def_602 (or .def_453 .def_601)))
(let ((.def_590 (* (- 1.0) b.time__AT3)))
(let ((.def_593 (+ b.delta__AT2 .def_590)))
(let ((.def_594 (+ b.time__AT2 .def_593)))
(let ((.def_595 (= .def_594 0.0 )))
(let ((.def_596 (or .def_581 .def_595)))
(let ((.def_597 (or b.EVENT.1__AT2 .def_596)))
(let ((.def_588 (or .def_577 .def_587)))
(let ((.def_589 (or b.EVENT.1__AT2 .def_588)))
(let ((.def_598 (and .def_589 .def_597)))
(let ((.def_603 (and .def_598 .def_602)))
(let ((.def_583 (= .def_581 b.event_is_timed__AT3)))
(let ((.def_580 (= b.event_is_timed__AT2 .def_577)))
(let ((.def_584 (and .def_580 .def_583)))
(let ((.def_571 (and .def_563 .def_570)))
(let ((.def_525 (= b.y__AT2 0.0 )))
(let ((.def_482 (<= 0.0 b.speed_y__AT2)))
(let ((.def_483 (not .def_482)))
(let ((.def_526 (and .def_483 .def_525)))
(let ((.def_572 (or .def_526 .def_571)))
(let ((.def_540 (or .def_9 b.counter.0__AT2)))
(let ((.def_539 (or b.counter.0__AT3 .def_347)))
(let ((.def_541 (and .def_539 .def_540)))
(let ((.def_542 (and .def_6 .def_541)))
(let ((.def_543 (or b.counter.1__AT2 .def_542)))
(let ((.def_538 (or b.counter.1__AT3 .def_335)))
(let ((.def_544 (and .def_538 .def_543)))
(let ((.def_555 (and .def_4 .def_544)))
(let ((.def_556 (or b.counter.2__AT2 .def_555)))
(let ((.def_550 (and .def_6 .def_347)))
(let ((.def_551 (or b.counter.1__AT2 .def_550)))
(let ((.def_552 (and .def_538 .def_551)))
(let ((.def_553 (and b.counter.2__AT3 .def_552)))
(let ((.def_554 (or .def_342 .def_553)))
(let ((.def_557 (and .def_554 .def_556)))
(let ((.def_558 (and b.counter.3__AT3 .def_557)))
(let ((.def_559 (or b.counter.3__AT2 .def_558)))
(let ((.def_545 (and b.counter.2__AT3 .def_544)))
(let ((.def_546 (or b.counter.2__AT2 .def_545)))
(let ((.def_534 (or b.counter.1__AT3 b.counter.1__AT2)))
(let ((.def_532 (and .def_6 b.counter.0__AT3)))
(let ((.def_533 (or .def_335 .def_532)))
(let ((.def_535 (and .def_533 .def_534)))
(let ((.def_536 (and .def_4 .def_535)))
(let ((.def_537 (or .def_342 .def_536)))
(let ((.def_547 (and .def_537 .def_546)))
(let ((.def_548 (and .def_14 .def_547)))
(let ((.def_549 (or .def_357 .def_548)))
(let ((.def_560 (and .def_549 .def_559)))
(let ((.def_528 (* (- 1.0) b.speed_y__AT2)))
(let ((.def_130 (* (- 1.0) speed_loss__AT0)))
(let ((.def_131 (+ 1.0 .def_130)))
(let ((.def_529 (* .def_131 .def_528)))
(let ((.def_531 (= .def_529 b.speed_y__AT3)))
(let ((.def_561 (and .def_531 .def_560)))
(let ((.def_527 (not .def_526)))
(let ((.def_562 (or .def_527 .def_561)))
(let ((.def_573 (and .def_562 .def_572)))
(let ((.def_576 (and .def_573 .def_575)))
(let ((.def_578 (or .def_576 .def_577)))
(let ((.def_579 (or b.EVENT.1__AT2 .def_578)))
(let ((.def_585 (and .def_579 .def_584)))
(let ((.def_604 (and .def_585 .def_603)))
(let ((.def_626 (and .def_604 .def_625)))
(let ((.def_629 (and .def_626 .def_628)))
(let ((.def_633 (and .def_629 .def_632)))
(let ((.def_634 (and .def_453 .def_633)))
(let ((.def_651 (and .def_634 .def_650)))
(let ((.def_659 (and .def_651 .def_658)))
(let ((.def_502 (<= b.speed_y__AT2 0.0 )))
(let ((.def_487 (+ .def_485 .def_484)))
(let ((.def_500 (<= .def_487 0.0 )))
(let ((.def_519 (and .def_500 .def_502)))
(let ((.def_488 (<= 0.0 .def_487)))
(let ((.def_489 (not .def_488)))
(let ((.def_516 (or .def_482 .def_489)))
(let ((.def_503 (not .def_502)))
(let ((.def_515 (or .def_500 .def_503)))
(let ((.def_517 (and .def_515 .def_516)))
(let ((.def_520 (and .def_517 .def_519)))
(let ((.def_514 (and .def_482 .def_488)))
(let ((.def_518 (and .def_514 .def_517)))
(let ((.def_521 (or .def_518 .def_520)))
(let ((.def_476 (+ .def_473 .def_475)))
(let ((.def_479 (+ .def_477 .def_476)))
(let ((.def_494 (<= .def_479 0.0 )))
(let ((.def_508 (not .def_494)))
(let ((.def_492 (<= b.y__AT2 0.0 )))
(let ((.def_509 (or .def_492 .def_508)))
(let ((.def_458 (<= 0.0 b.y__AT2)))
(let ((.def_506 (not .def_458)))
(let ((.def_480 (<= 0.0 .def_479)))
(let ((.def_507 (or .def_480 .def_506)))
(let ((.def_510 (and .def_507 .def_509)))
(let ((.def_501 (not .def_500)))
(let ((.def_504 (or .def_501 .def_503)))
(let ((.def_505 (not .def_504)))
(let ((.def_511 (or .def_505 .def_510)))
(let ((.def_496 (not .def_480)))
(let ((.def_497 (or .def_458 .def_496)))
(let ((.def_493 (not .def_492)))
(let ((.def_495 (or .def_493 .def_494)))
(let ((.def_498 (and .def_495 .def_497)))
(let ((.def_490 (or .def_483 .def_489)))
(let ((.def_491 (not .def_490)))
(let ((.def_499 (or .def_491 .def_498)))
(let ((.def_512 (and .def_499 .def_511)))
(let ((.def_481 (and .def_458 .def_480)))
(let ((.def_513 (and .def_481 .def_512)))
(let ((.def_522 (and .def_513 .def_521)))
(let ((.def_523 (and .def_64 .def_522)))
(let ((.def_149 (not b.counter.0__AT1)))
(let ((.def_137 (not b.counter.1__AT1)))
(let ((.def_463 (and .def_137 .def_149)))
(let ((.def_467 (or b.counter.3__AT1 .def_463)))
(let ((.def_464 (or b.counter.2__AT1 .def_463)))
(let ((.def_144 (not b.counter.2__AT1)))
(let ((.def_462 (or .def_137 .def_144)))
(let ((.def_465 (and .def_462 .def_464)))
(let ((.def_159 (not b.counter.3__AT1)))
(let ((.def_466 (or .def_159 .def_465)))
(let ((.def_468 (and .def_466 .def_467)))
(let ((.def_459 (and .def_64 .def_458)))
(let ((.def_456 (or .def_453 .def_455)))
(let ((.def_446 (or .def_335 .def_347)))
(let ((.def_450 (or b.counter.3__AT2 .def_446)))
(let ((.def_447 (or b.counter.2__AT2 .def_446)))
(let ((.def_445 (or .def_342 .def_347)))
(let ((.def_448 (and .def_445 .def_447)))
(let ((.def_449 (or .def_357 .def_448)))
(let ((.def_451 (and .def_449 .def_450)))
(let ((.def_457 (and .def_451 .def_456)))
(let ((.def_460 (and .def_457 .def_459)))
(let ((.def_440 (<= 0.0 b.delta__AT1)))
(let ((.def_258 (not b.EVENT.0__AT1)))
(let ((.def_256 (not b.EVENT.1__AT1)))
(let ((.def_387 (and .def_256 .def_258)))
(let ((.def_391 (not .def_387)))
(let ((.def_441 (or .def_391 .def_440)))
(let ((.def_442 (or b.EVENT.1__AT1 .def_441)))
(let ((.def_379 (= b.counter.0__AT1 b.counter.0__AT2)))
(let ((.def_377 (= b.counter.1__AT1 b.counter.1__AT2)))
(let ((.def_375 (= b.counter.2__AT1 b.counter.2__AT2)))
(let ((.def_374 (= b.counter.3__AT1 b.counter.3__AT2)))
(let ((.def_376 (and .def_374 .def_375)))
(let ((.def_378 (and .def_376 .def_377)))
(let ((.def_380 (and .def_378 .def_379)))
(let ((.def_437 (or .def_380 .def_391)))
(let ((.def_438 (or b.EVENT.1__AT1 .def_437)))
(let ((.def_425 (* (- 10.0) b.y__AT2)))
(let ((.def_276 (* b.speed_y__AT1 b.delta__AT1)))
(let ((.def_277 (* 10.0 .def_276)))
(let ((.def_429 (+ .def_277 .def_425)))
(let ((.def_274 (* b.delta__AT1 b.delta__AT1)))
(let ((.def_275 (* (- 49.0) .def_274)))
(let ((.def_430 (+ .def_275 .def_429)))
(let ((.def_279 (* 10.0 b.y__AT1)))
(let ((.def_431 (+ .def_279 .def_430)))
(let ((.def_432 (= .def_431 0.0 )))
(let ((.def_421 (* (- 5.0) b.speed_y__AT2)))
(let ((.def_286 (* (- 49.0) b.delta__AT1)))
(let ((.def_422 (+ .def_286 .def_421)))
(let ((.def_287 (* 5.0 b.speed_y__AT1)))
(let ((.def_423 (+ .def_287 .def_422)))
(let ((.def_424 (= .def_423 0.0 )))
(let ((.def_433 (and .def_424 .def_432)))
(let ((.def_434 (or .def_391 .def_433)))
(let ((.def_385 (= b.y__AT1 b.y__AT2)))
(let ((.def_373 (= b.speed_y__AT1 b.speed_y__AT2)))
(let ((.def_418 (and .def_373 .def_385)))
(let ((.def_415 (= b.delta__AT1 0.0 )))
(let ((.def_416 (and .def_387 .def_415)))
(let ((.def_417 (not .def_416)))
(let ((.def_419 (or .def_417 .def_418)))
(let ((.def_420 (or b.EVENT.1__AT1 .def_419)))
(let ((.def_435 (and .def_420 .def_434)))
(let ((.def_397 (= b.time__AT1 b.time__AT2)))
(let ((.def_409 (and .def_385 .def_397)))
(let ((.def_410 (and .def_373 .def_409)))
(let ((.def_411 (and .def_380 .def_410)))
(let ((.def_412 (or .def_256 .def_411)))
(let ((.def_400 (* (- 1.0) b.time__AT2)))
(let ((.def_403 (+ b.delta__AT1 .def_400)))
(let ((.def_404 (+ b.time__AT1 .def_403)))
(let ((.def_405 (= .def_404 0.0 )))
(let ((.def_406 (or .def_391 .def_405)))
(let ((.def_407 (or b.EVENT.1__AT1 .def_406)))
(let ((.def_398 (or .def_387 .def_397)))
(let ((.def_399 (or b.EVENT.1__AT1 .def_398)))
(let ((.def_408 (and .def_399 .def_407)))
(let ((.def_413 (and .def_408 .def_412)))
(let ((.def_393 (= .def_391 b.event_is_timed__AT2)))
(let ((.def_390 (= b.event_is_timed__AT1 .def_387)))
(let ((.def_394 (and .def_390 .def_393)))
(let ((.def_381 (and .def_373 .def_380)))
(let ((.def_327 (= b.y__AT1 0.0 )))
(let ((.def_284 (<= 0.0 b.speed_y__AT1)))
(let ((.def_285 (not .def_284)))
(let ((.def_328 (and .def_285 .def_327)))
(let ((.def_382 (or .def_328 .def_381)))
(let ((.def_348 (or b.counter.0__AT1 .def_347)))
(let ((.def_346 (or .def_149 b.counter.0__AT2)))
(let ((.def_349 (and .def_346 .def_348)))
(let ((.def_350 (and .def_335 .def_349)))
(let ((.def_351 (or b.counter.1__AT1 .def_350)))
(let ((.def_345 (or .def_137 b.counter.1__AT2)))
(let ((.def_352 (and .def_345 .def_351)))
(let ((.def_365 (and .def_342 .def_352)))
(let ((.def_366 (or b.counter.2__AT1 .def_365)))
(let ((.def_360 (and .def_149 .def_335)))
(let ((.def_361 (or b.counter.1__AT1 .def_360)))
(let ((.def_362 (and .def_345 .def_361)))
(let ((.def_363 (and b.counter.2__AT2 .def_362)))
(let ((.def_364 (or .def_144 .def_363)))
(let ((.def_367 (and .def_364 .def_366)))
(let ((.def_368 (and b.counter.3__AT2 .def_367)))
(let ((.def_369 (or b.counter.3__AT1 .def_368)))
(let ((.def_353 (and b.counter.2__AT2 .def_352)))
(let ((.def_354 (or b.counter.2__AT1 .def_353)))
(let ((.def_339 (or b.counter.1__AT1 b.counter.1__AT2)))
(let ((.def_337 (and .def_335 b.counter.0__AT2)))
(let ((.def_338 (or .def_137 .def_337)))
(let ((.def_340 (and .def_338 .def_339)))
(let ((.def_343 (and .def_340 .def_342)))
(let ((.def_344 (or .def_144 .def_343)))
(let ((.def_355 (and .def_344 .def_354)))
(let ((.def_358 (and .def_355 .def_357)))
(let ((.def_359 (or .def_159 .def_358)))
(let ((.def_370 (and .def_359 .def_369)))
(let ((.def_330 (* (- 1.0) b.speed_y__AT1)))
(let ((.def_331 (* .def_131 .def_330)))
(let ((.def_333 (= .def_331 b.speed_y__AT2)))
(let ((.def_371 (and .def_333 .def_370)))
(let ((.def_329 (not .def_328)))
(let ((.def_372 (or .def_329 .def_371)))
(let ((.def_383 (and .def_372 .def_382)))
(let ((.def_386 (and .def_383 .def_385)))
(let ((.def_388 (or .def_386 .def_387)))
(let ((.def_389 (or b.EVENT.1__AT1 .def_388)))
(let ((.def_395 (and .def_389 .def_394)))
(let ((.def_414 (and .def_395 .def_413)))
(let ((.def_436 (and .def_414 .def_435)))
(let ((.def_439 (and .def_436 .def_438)))
(let ((.def_443 (and .def_439 .def_442)))
(let ((.def_444 (and .def_256 .def_443)))
(let ((.def_461 (and .def_444 .def_460)))
(let ((.def_469 (and .def_461 .def_468)))
(let ((.def_304 (<= b.speed_y__AT1 0.0 )))
(let ((.def_289 (+ .def_287 .def_286)))
(let ((.def_302 (<= .def_289 0.0 )))
(let ((.def_321 (and .def_302 .def_304)))
(let ((.def_290 (<= 0.0 .def_289)))
(let ((.def_291 (not .def_290)))
(let ((.def_318 (or .def_284 .def_291)))
(let ((.def_305 (not .def_304)))
(let ((.def_317 (or .def_302 .def_305)))
(let ((.def_319 (and .def_317 .def_318)))
(let ((.def_322 (and .def_319 .def_321)))
(let ((.def_316 (and .def_284 .def_290)))
(let ((.def_320 (and .def_316 .def_319)))
(let ((.def_323 (or .def_320 .def_322)))
(let ((.def_278 (+ .def_275 .def_277)))
(let ((.def_281 (+ .def_279 .def_278)))
(let ((.def_296 (<= .def_281 0.0 )))
(let ((.def_310 (not .def_296)))
(let ((.def_294 (<= b.y__AT1 0.0 )))
(let ((.def_311 (or .def_294 .def_310)))
(let ((.def_261 (<= 0.0 b.y__AT1)))
(let ((.def_308 (not .def_261)))
(let ((.def_282 (<= 0.0 .def_281)))
(let ((.def_309 (or .def_282 .def_308)))
(let ((.def_312 (and .def_309 .def_311)))
(let ((.def_303 (not .def_302)))
(let ((.def_306 (or .def_303 .def_305)))
(let ((.def_307 (not .def_306)))
(let ((.def_313 (or .def_307 .def_312)))
(let ((.def_298 (not .def_282)))
(let ((.def_299 (or .def_261 .def_298)))
(let ((.def_295 (not .def_294)))
(let ((.def_297 (or .def_295 .def_296)))
(let ((.def_300 (and .def_297 .def_299)))
(let ((.def_292 (or .def_285 .def_291)))
(let ((.def_293 (not .def_292)))
(let ((.def_301 (or .def_293 .def_300)))
(let ((.def_314 (and .def_301 .def_313)))
(let ((.def_283 (and .def_261 .def_282)))
(let ((.def_315 (and .def_283 .def_314)))
(let ((.def_324 (and .def_315 .def_323)))
(let ((.def_325 (and .def_64 .def_324)))
(let ((.def_34 (not b.counter.0__AT0)))
(let ((.def_32 (not b.counter.1__AT0)))
(let ((.def_35 (and .def_32 .def_34)))
(let ((.def_269 (or .def_35 b.counter.3__AT0)))
(let ((.def_266 (or .def_35 b.counter.2__AT0)))
(let ((.def_37 (not b.counter.2__AT0)))
(let ((.def_265 (or .def_32 .def_37)))
(let ((.def_267 (and .def_265 .def_266)))
(let ((.def_40 (not b.counter.3__AT0)))
(let ((.def_268 (or .def_40 .def_267)))
(let ((.def_270 (and .def_268 .def_269)))
(let ((.def_262 (and .def_64 .def_261)))
(let ((.def_259 (or .def_256 .def_258)))
(let ((.def_249 (or .def_137 .def_149)))
(let ((.def_253 (or b.counter.3__AT1 .def_249)))
(let ((.def_250 (or b.counter.2__AT1 .def_249)))
(let ((.def_248 (or .def_144 .def_149)))
(let ((.def_251 (and .def_248 .def_250)))
(let ((.def_252 (or .def_159 .def_251)))
(let ((.def_254 (and .def_252 .def_253)))
(let ((.def_260 (and .def_254 .def_259)))
(let ((.def_263 (and .def_260 .def_262)))
(let ((.def_243 (<= 0.0 b.delta__AT0)))
(let ((.def_53 (not b.EVENT.0__AT0)))
(let ((.def_51 (not b.EVENT.1__AT0)))
(let ((.def_189 (and .def_51 .def_53)))
(let ((.def_193 (not .def_189)))
(let ((.def_244 (or .def_193 .def_243)))
(let ((.def_245 (or b.EVENT.1__AT0 .def_244)))
(let ((.def_181 (= b.counter.0__AT0 b.counter.0__AT1)))
(let ((.def_179 (= b.counter.1__AT0 b.counter.1__AT1)))
(let ((.def_177 (= b.counter.2__AT0 b.counter.2__AT1)))
(let ((.def_176 (= b.counter.3__AT0 b.counter.3__AT1)))
(let ((.def_178 (and .def_176 .def_177)))
(let ((.def_180 (and .def_178 .def_179)))
(let ((.def_182 (and .def_180 .def_181)))
(let ((.def_240 (or .def_182 .def_193)))
(let ((.def_241 (or b.EVENT.1__AT0 .def_240)))
(let ((.def_229 (* (- 10.0) b.y__AT1)))
(let ((.def_74 (* b.speed_y__AT0 b.delta__AT0)))
(let ((.def_75 (* 10.0 .def_74)))
(let ((.def_232 (+ .def_75 .def_229)))
(let ((.def_70 (* b.delta__AT0 b.delta__AT0)))
(let ((.def_73 (* (- 49.0) .def_70)))
(let ((.def_233 (+ .def_73 .def_232)))
(let ((.def_77 (* 10.0 b.y__AT0)))
(let ((.def_234 (+ .def_77 .def_233)))
(let ((.def_235 (= .def_234 0.0 )))
(let ((.def_224 (* (- 5.0) b.speed_y__AT1)))
(let ((.def_84 (* (- 49.0) b.delta__AT0)))
(let ((.def_225 (+ .def_84 .def_224)))
(let ((.def_86 (* 5.0 b.speed_y__AT0)))
(let ((.def_226 (+ .def_86 .def_225)))
(let ((.def_227 (= .def_226 0.0 )))
(let ((.def_236 (and .def_227 .def_235)))
(let ((.def_237 (or .def_193 .def_236)))
(let ((.def_187 (= b.y__AT0 b.y__AT1)))
(let ((.def_175 (= b.speed_y__AT0 b.speed_y__AT1)))
(let ((.def_220 (and .def_175 .def_187)))
(let ((.def_217 (= b.delta__AT0 0.0 )))
(let ((.def_218 (and .def_189 .def_217)))
(let ((.def_219 (not .def_218)))
(let ((.def_221 (or .def_219 .def_220)))
(let ((.def_222 (or b.EVENT.1__AT0 .def_221)))
(let ((.def_238 (and .def_222 .def_237)))
(let ((.def_199 (= b.time__AT0 b.time__AT1)))
(let ((.def_211 (and .def_187 .def_199)))
(let ((.def_212 (and .def_175 .def_211)))
(let ((.def_213 (and .def_182 .def_212)))
(let ((.def_214 (or .def_51 .def_213)))
(let ((.def_202 (* (- 1.0) b.time__AT1)))
(let ((.def_205 (+ b.delta__AT0 .def_202)))
(let ((.def_206 (+ b.time__AT0 .def_205)))
(let ((.def_207 (= .def_206 0.0 )))
(let ((.def_208 (or .def_193 .def_207)))
(let ((.def_209 (or b.EVENT.1__AT0 .def_208)))
(let ((.def_200 (or .def_189 .def_199)))
(let ((.def_201 (or b.EVENT.1__AT0 .def_200)))
(let ((.def_210 (and .def_201 .def_209)))
(let ((.def_215 (and .def_210 .def_214)))
(let ((.def_195 (= .def_193 b.event_is_timed__AT1)))
(let ((.def_192 (= b.event_is_timed__AT0 .def_189)))
(let ((.def_196 (and .def_192 .def_195)))
(let ((.def_183 (and .def_175 .def_182)))
(let ((.def_126 (= b.y__AT0 0.0 )))
(let ((.def_82 (<= 0.0 b.speed_y__AT0)))
(let ((.def_83 (not .def_82)))
(let ((.def_127 (and .def_83 .def_126)))
(let ((.def_184 (or .def_127 .def_183)))
(let ((.def_150 (or b.counter.0__AT0 .def_149)))
(let ((.def_148 (or .def_34 b.counter.0__AT1)))
(let ((.def_151 (and .def_148 .def_150)))
(let ((.def_152 (and .def_137 .def_151)))
(let ((.def_153 (or b.counter.1__AT0 .def_152)))
(let ((.def_147 (or .def_32 b.counter.1__AT1)))
(let ((.def_154 (and .def_147 .def_153)))
(let ((.def_167 (and .def_144 .def_154)))
(let ((.def_168 (or b.counter.2__AT0 .def_167)))
(let ((.def_162 (and .def_34 .def_137)))
(let ((.def_163 (or b.counter.1__AT0 .def_162)))
(let ((.def_164 (and .def_147 .def_163)))
(let ((.def_165 (and b.counter.2__AT1 .def_164)))
(let ((.def_166 (or .def_37 .def_165)))
(let ((.def_169 (and .def_166 .def_168)))
(let ((.def_170 (and b.counter.3__AT1 .def_169)))
(let ((.def_171 (or b.counter.3__AT0 .def_170)))
(let ((.def_155 (and b.counter.2__AT1 .def_154)))
(let ((.def_156 (or b.counter.2__AT0 .def_155)))
(let ((.def_141 (or b.counter.1__AT0 b.counter.1__AT1)))
(let ((.def_139 (and .def_137 b.counter.0__AT1)))
(let ((.def_140 (or .def_32 .def_139)))
(let ((.def_142 (and .def_140 .def_141)))
(let ((.def_145 (and .def_142 .def_144)))
(let ((.def_146 (or .def_37 .def_145)))
(let ((.def_157 (and .def_146 .def_156)))
(let ((.def_160 (and .def_157 .def_159)))
(let ((.def_161 (or .def_40 .def_160)))
(let ((.def_172 (and .def_161 .def_171)))
(let ((.def_132 (* (- 1.0) b.speed_y__AT0)))
(let ((.def_133 (* .def_131 .def_132)))
(let ((.def_135 (= .def_133 b.speed_y__AT1)))
(let ((.def_173 (and .def_135 .def_172)))
(let ((.def_128 (not .def_127)))
(let ((.def_174 (or .def_128 .def_173)))
(let ((.def_185 (and .def_174 .def_184)))
(let ((.def_188 (and .def_185 .def_187)))
(let ((.def_190 (or .def_188 .def_189)))
(let ((.def_191 (or b.EVENT.1__AT0 .def_190)))
(let ((.def_197 (and .def_191 .def_196)))
(let ((.def_216 (and .def_197 .def_215)))
(let ((.def_239 (and .def_216 .def_238)))
(let ((.def_242 (and .def_239 .def_241)))
(let ((.def_246 (and .def_242 .def_245)))
(let ((.def_247 (and .def_51 .def_246)))
(let ((.def_264 (and .def_247 .def_263)))
(let ((.def_271 (and .def_264 .def_270)))
(let ((.def_103 (<= b.speed_y__AT0 0.0 )))
(let ((.def_88 (+ .def_86 .def_84)))
(let ((.def_101 (<= .def_88 0.0 )))
(let ((.def_120 (and .def_101 .def_103)))
(let ((.def_89 (<= 0.0 .def_88)))
(let ((.def_90 (not .def_89)))
(let ((.def_117 (or .def_82 .def_90)))
(let ((.def_104 (not .def_103)))
(let ((.def_116 (or .def_101 .def_104)))
(let ((.def_118 (and .def_116 .def_117)))
(let ((.def_121 (and .def_118 .def_120)))
(let ((.def_115 (and .def_82 .def_89)))
(let ((.def_119 (and .def_115 .def_118)))
(let ((.def_122 (or .def_119 .def_121)))
(let ((.def_76 (+ .def_73 .def_75)))
(let ((.def_79 (+ .def_77 .def_76)))
(let ((.def_95 (<= .def_79 0.0 )))
(let ((.def_109 (not .def_95)))
(let ((.def_93 (<= b.y__AT0 0.0 )))
(let ((.def_110 (or .def_93 .def_109)))
(let ((.def_56 (<= 0.0 b.y__AT0)))
(let ((.def_107 (not .def_56)))
(let ((.def_80 (<= 0.0 .def_79)))
(let ((.def_108 (or .def_80 .def_107)))
(let ((.def_111 (and .def_108 .def_110)))
(let ((.def_102 (not .def_101)))
(let ((.def_105 (or .def_102 .def_104)))
(let ((.def_106 (not .def_105)))
(let ((.def_112 (or .def_106 .def_111)))
(let ((.def_97 (not .def_80)))
(let ((.def_98 (or .def_56 .def_97)))
(let ((.def_94 (not .def_93)))
(let ((.def_96 (or .def_94 .def_95)))
(let ((.def_99 (and .def_96 .def_98)))
(let ((.def_91 (or .def_83 .def_90)))
(let ((.def_92 (not .def_91)))
(let ((.def_100 (or .def_92 .def_99)))
(let ((.def_113 (and .def_100 .def_112)))
(let ((.def_81 (and .def_56 .def_80)))
(let ((.def_114 (and .def_81 .def_113)))
(let ((.def_123 (and .def_114 .def_122)))
(let ((.def_124 (and .def_64 .def_123)))
(let ((.def_65 (and .def_56 .def_64)))
(let ((.def_54 (or .def_51 .def_53)))
(let ((.def_44 (or .def_32 .def_34)))
(let ((.def_48 (or b.counter.3__AT0 .def_44)))
(let ((.def_45 (or b.counter.2__AT0 .def_44)))
(let ((.def_43 (or .def_34 .def_37)))
(let ((.def_46 (and .def_43 .def_45)))
(let ((.def_47 (or .def_40 .def_46)))
(let ((.def_49 (and .def_47 .def_48)))
(let ((.def_55 (and .def_49 .def_54)))
(let ((.def_66 (and .def_55 .def_65)))
(let ((.def_38 (and .def_35 .def_37)))
(let ((.def_41 (and .def_38 .def_40)))
(let ((.def_29 (= b.speed_y__AT0 0.0 )))
(let ((.def_26 (= b.y__AT0 10.0 )))
(let ((.def_21 (= b.time__AT0 0.0 )))
(let ((.def_23 (and .def_21 b.event_is_timed__AT0)))
(let ((.def_27 (and .def_23 .def_26)))
(let ((.def_30 (and .def_27 .def_29)))
(let ((.def_42 (and .def_30 .def_41)))
(let ((.def_67 (and .def_42 .def_66)))
(let ((.def_10 (and .def_6 .def_9)))
(let ((.def_16 (or .def_10 b.counter.3__AT3)))
(let ((.def_11 (or b.counter.2__AT3 .def_10)))
(let ((.def_7 (or .def_4 .def_6)))
(let ((.def_12 (and .def_7 .def_11)))
(let ((.def_15 (or .def_12 .def_14)))
(let ((.def_17 (and .def_15 .def_16)))
(let ((.def_18 (not .def_17)))
(let ((.def_68 (and .def_18 .def_67)))
(let ((.def_125 (and .def_68 .def_124)))
(let ((.def_272 (and .def_125 .def_271)))
(let ((.def_326 (and .def_272 .def_325)))
(let ((.def_470 (and .def_326 .def_469)))
(let ((.def_524 (and .def_470 .def_523)))
(let ((.def_660 (and .def_524 .def_659)))
(let ((.def_714 (and .def_660 .def_713)))
.def_714))))))))))))))))))))))))))))))))))))))))))))))))))))))))))))))))))))))))))))))))))))))))))))))))))))))))))))))))))))))))))))))))))))))))))))))))))))))))))))))))))))))))))))))))))))))))))))))))))))))))))))))))))))))))))))))))))))))))))))))))))))))))))))))))))))))))))))))))))))))))))))))))))))))))))))))))))))))))))))))))))))))))))))))))))))))))))))))))))))))))))))))))))))))))))))))))))))))))))))))))))))))))))))))))))))))))))))))))))))))))))))))))))))))))))))))))))))))))))))))))))))))))))))))))))))))))))))))))))))))))))))))))))))))))))))))))))))))))))))))))))))))))))))))))))))))))))))))))))))))))))))))))))))))))))))))))))))))))))
(check-sat)
(exit)
